HUN,8,6,97
5,23,0,27,1,29,4,30,3,26,2,23
2,28,1,22,0,29,3,24,4,26,5,23
0,25,1,27,5,29,2,21,4,26,3,29
0,27,4,29,2,21,3,27,1,26,5,22
1,24,3,26,5,26,2,23,4,28,0,22
2,26,0,27,1,22,3,23,4,30,5,30
3,24,4,22,5,26,1,26,2,27,0,21
2,27,0,30,1,27,3,24,5,30,4,27
